nrDays = 7;
nrWeeks = 5;
slotsPerDay = 288;

nrClasses = 2;

% array giving the number of possible time options for each class
classes_options = [3,2];

% array giving the index of each class in the class_week array
classes_idx = [1,4];

% possible weeks
classes_weeks = 
  [|false,	false,	false,	true,		true,		%class1
	|	false,	true,		true,		false,	false,	%class1
	|	true,		true,		true,		false,	false,	%class1
	|	false,	true,		true,		true,	false,	%class2
	|	false,	false,	false,	true,	true,		%class2
	|];

% possible days
classes_days = 
  [|true,	true,	true,	true,	true,	true,	true,	%class1
	|	true,	true,	true,	true,	true,	true,	true,	%class1
	|	true,	true,	true,	true,	true,	true,	true,	%class1
	|	true,	true,	true,	true,	true,	true,	true,	%class2
	|	true,	true,	true,	true,	true,	true,	true,	%class2
	|];

classes_days_sd = 
  [|90,	20
	|	90,	20
	|	90,	20
	|	90,	20
	|	90,	20
	|];

option_penalties = [1,2,3,4,5];

nrRoom = 20;

% array giving the number of unavailabilities per room
room_unav_cnt = [0,0];

% array giving the index of each room in the unavailabilities array
rooms_unav_idx = [1,1];

% possible weeks
rooms_weeks = [];

% possible days
rooms_days = [];

% start and duration of the class
rooms_days_sd = [];

% traveltime adjacency matrix
travel_adj_mat = 
	[|1,1
	 |1,1
	 |];



